Route #1: 1 1 33 23 57 48 11 7 39 28 32 19 12 1 
Route #2: 1 25 45 56 10 8 24 1 
Route #3: 1 18 21 52 44 59 40 58 61 26 1 
Route #4: 1 55 29 62 51 54 63 1 
Route #5: 1 13 20 42 41 37 30 5 1 
Route #6: 1 53 38 50 35 3 14 22 27 1 
Route #7: 1 49 4 36 60 16 2 1 
Route #8: 1 43 15 47 34 31 46 1 
Route #9: 1 17 9 6 64 1 

Cost 1899.23
Time 0.5830


 * Another infos *

 Iterations: 65 Time: 0.5830 sec - 0.0097 min - 0.0002 horas
0.0000 h 0.0097 min
Problem dimension: 65
